LPs/20_8/20_8a8smaller130.result
SDPA-GMP start at Thu Apr 19 18:00:54 2018
data      is 20_8a8smaller130.dat-s
parameter is ./param.sdpa
out       is 20_8a8smaller130.result
DENSE computation
   mu      thetaP  thetaD  objP      objD      alphaP  alphaD  beta 
 0 1.0e+10 1.0e+00 1.0e+00 +0.00e+00 -3.37e+09 7.4e-01 8.9e-01 2.00e-01
 1 2.9e+09 2.6e-01 1.1e-01 -1.31e+04 -3.56e+08 8.9e-01 8.3e-01 2.00e-01
 2 4.5e+08 2.8e-02 1.8e-02 +9.61e+02 -6.21e+07 9.0e-01 6.2e-01 2.00e-01
 3 1.4e+08 2.8e-03 7.1e-03 +7.28e+03 -2.39e+07 9.0e-01 8.8e-01 2.00e-01
 4 2.2e+07 2.8e-04 8.5e-04 +1.08e+04 -2.86e+06 9.0e-01 8.9e-01 2.00e-01
 5 3.3e+06 2.8e-05 9.5e-05 +1.41e+04 -3.20e+05 9.0e-01 9.0e-01 2.00e-01
 6 4.5e+05 2.8e-06 9.5e-06 +1.83e+04 -3.21e+04 9.0e-01 9.1e-01 2.00e-01
 7 6.2e+04 2.8e-07 8.8e-07 +2.36e+04 -3.23e+03 9.0e-01 9.7e-01 2.00e-01
 8 8.4e+03 2.8e-08 2.6e-08 +2.73e+04 -3.45e+02 9.0e-01 1.0e+00 2.00e-01
 9 2.0e+03 2.8e-09 1.3e-160 +9.66e+03 -2.56e+02 9.0e-01 9.0e-01 2.00e-01
10 4.6e+02 2.8e-10 4.0e-159 +2.18e+03 -2.56e+02 9.0e-01 9.0e-01 2.00e-01
11 1.1e+02 2.8e-11 3.4e-159 +3.22e+02 -2.56e+02 9.0e-01 9.0e-01 2.00e-01
12 2.5e+01 2.8e-12 7.4e-157 -1.21e+02 -2.56e+02 9.0e-01 9.0e-01 2.00e-01
13 5.8e+00 2.8e-13 5.6e-156 -2.24e+02 -2.56e+02 9.0e-01 9.0e-01 2.00e-01
14 1.3e+00 2.8e-14 3.2e-155 -2.49e+02 -2.56e+02 9.0e-01 9.0e+01 2.00e-01
15 1.9e+00 2.8e-15 2.8e-153 -2.54e+02 -2.56e+02 9.0e-01 9.0e-01 2.00e-01
16 4.4e-01 2.8e-16 2.2e-153 -2.54e+02 -2.56e+02 9.0e-01 9.0e+01 2.00e-01
17 6.3e-01 2.8e-17 1.9e-151 -2.56e+02 -2.56e+02 9.0e-01 9.0e-01 2.00e-01
18 1.5e-01 2.8e-18 2.7e-152 -2.55e+02 -2.56e+02 9.0e-01 9.0e+01 2.00e-01
19 2.1e-01 2.8e-19 2.4e-150 -2.56e+02 -2.56e+02 9.0e-01 9.0e-01 2.00e-01
20 4.8e-02 2.8e-20 2.4e-151 -2.56e+02 -2.56e+02 9.0e-01 6.2e+01 2.00e-01
21 4.9e-02 2.8e-21 1.5e-149 -2.56e+02 -2.56e+02 9.0e-01 9.0e-01 2.00e-01
22 1.1e-02 2.8e-22 1.4e-150 -2.56e+02 -2.56e+02 9.0e-01 3.8e+00 2.00e-01
23 2.2e-03 2.8e-23 1.3e-149 -2.56e+02 -2.56e+02 9.0e-01 5.4e+00 2.00e-01
24 5.4e-04 2.8e-24 1.4e-148 -2.56e+02 -2.56e+02 9.0e-01 9.0e-01 2.00e-01
25 1.3e-04 2.8e-25 9.8e-149 -2.56e+02 -2.56e+02 9.0e-01 1.2e+00 2.00e-01
26 2.6e-05 2.8e-26 1.7e-149 -2.56e+02 -2.56e+02 9.0e-01 1.7e+00 2.00e-01
27 5.4e-06 2.8e-27 1.1e-149 -2.56e+02 -2.56e+02 9.0e-01 2.4e+01 2.00e-01
28 2.8e-06 2.8e-28 2.5e-148 -2.56e+02 -2.56e+02 9.0e-01 9.0e-01 2.00e-01
29 6.4e-07 2.8e-29 2.8e-149 -2.56e+02 -2.56e+02 9.0e-01 1.2e+00 2.00e-01
30 1.3e-07 2.8e-30 4.7e-150 -2.56e+02 -2.56e+02 9.0e-01 1.9e+00 2.00e-01
31 2.8e-08 2.8e-31 4.9e-150 -2.56e+02 -2.56e+02 9.0e-01 9.0e-01 2.00e-01
32 6.6e-09 2.8e-32 5.0e-151 -2.56e+02 -2.56e+02 9.0e-01 1.2e+00 2.00e-01
33 1.4e-09 2.8e-33 6.3e-153 -2.56e+02 -2.56e+02 9.0e-01 1.7e+00 2.00e-01
34 2.9e-10 2.8e-34 2.3e-152 -2.56e+02 -2.56e+02 9.0e-01 9.0e-01 2.00e-01
35 6.7e-11 2.8e-35 1.6e-152 -2.56e+02 -2.56e+02 9.0e-01 1.2e+00 2.00e-01
36 1.4e-11 2.8e-36 5.7e-162 -2.56e+02 -2.56e+02 9.0e-01 1.7e+00 2.00e-01
37 2.9e-12 2.8e-37 3.9e-162 -2.56e+02 -2.56e+02 9.0e-01 9.0e-01 2.00e-01
38 6.8e-13 2.8e-38 5.2e-143 -2.56e+02 -2.56e+02 9.0e-01 1.2e+00 2.00e-01
39 1.4e-13 2.8e-39 5.2e-143 -2.56e+02 -2.56e+02 9.0e-01 1.7e+00 2.00e-01
40 3.0e-14 2.8e-40 5.2e-143 -2.56e+02 -2.56e+02 9.0e-01 9.0e-01 2.00e-01
41 6.9e-15 2.8e-41 5.2e-143 -2.56e+02 -2.56e+02 9.0e-01 1.2e+00 2.00e-01
42 1.4e-15 2.8e-42 0.0e+00 -2.56e+02 -2.56e+02 9.0e-01 1.7e+00 2.00e-01
43 3.0e-16 2.8e-43 0.0e+00 -2.56e+02 -2.56e+02 9.0e-01 9.0e-01 2.00e-01
44 7.0e-17 2.8e-44 1.0e-141 -2.56e+02 -2.56e+02 9.0e-01 1.2e+00 2.00e-01
45 1.4e-17 2.8e-45 2.1e-142 -2.56e+02 -2.56e+02 9.0e-01 1.7e+00 2.00e-01
46 3.1e-18 2.8e-46 6.8e-142 -2.56e+02 -2.56e+02 9.0e-01 9.0e-01 2.00e-01
47 7.1e-19 2.8e-47 3.8e-141 -2.56e+02 -2.56e+02 9.0e-01 1.2e+00 2.00e-01
48 1.5e-19 2.8e-48 2.5e-140 -2.56e+02 -2.56e+02 9.0e-01 1.7e+00 2.00e-01
49 3.1e-20 2.8e-49 1.1e-138 -2.56e+02 -2.56e+02 9.0e-01 9.0e-01 2.00e-01
50 7.3e-21 2.8e-50 1.1e-139 -2.56e+02 -2.56e+02 9.0e-01 1.2e+00 2.00e-01
51 1.5e-21 2.8e-51 1.8e-140 -2.56e+02 -2.56e+02 9.0e-01 1.7e+00 2.00e-01
52 3.2e-22 2.8e-52 1.3e-140 -2.56e+02 -2.56e+02 9.0e-01 9.0e-01 2.00e-01
53 7.4e-23 2.8e-53 1.3e-141 -2.56e+02 -2.56e+02 9.0e-01 1.2e+00 2.00e-01
54 1.5e-23 2.8e-54 2.6e-142 -2.56e+02 -2.56e+02 9.0e-01 1.7e+00 2.00e-01
55 3.2e-24 2.8e-55 2.1e-142 -2.56e+02 -2.56e+02 9.0e-01 9.0e-01 2.00e-01
56 7.5e-25 2.8e-56 3.1e-164 -2.56e+02 -2.56e+02 9.0e-01 1.2e+00 2.00e-01
57 1.5e-25 2.8e-57 2.8e-162 -2.56e+02 -2.56e+02 9.0e-01 1.7e+00 2.00e-01
58 3.3e-26 2.8e-58 2.0e-141 -2.56e+02 -2.56e+02 9.0e-01 9.0e-01 2.00e-01
59 7.6e-27 2.8e-59 4.9e-141 -2.56e+02 -2.56e+02 9.0e-01 1.2e+00 2.00e-01
60 1.6e-27 2.8e-60 1.9e-139 -2.56e+02 -2.56e+02 9.0e-01 1.7e+00 2.00e-01
61 3.3e-28 2.8e-61 6.6e-138 -2.56e+02 -2.56e+02 9.0e-01 9.0e-01 2.00e-01
62 7.7e-29 2.8e-62 5.4e-137 -2.56e+02 -2.56e+02 9.0e-01 1.2e+00 2.00e-01
63 1.6e-29 2.8e-63 6.8e-136 -2.56e+02 -2.56e+02 9.0e-01 1.7e+00 2.00e-01
64 3.4e-30 2.8e-64 1.2e-134 -2.56e+02 -2.56e+02 9.0e-01 9.0e-01 2.00e-01
65 7.9e-31 2.8e-65 1.2e-135 -2.56e+02 -2.56e+02 9.0e-01 1.2e+00 2.00e-01
66 1.6e-31 2.8e-66 2.0e-136 -2.56e+02 -2.56e+02 9.0e-01 1.7e+00 2.00e-01
67 3.4e-32 2.8e-67 1.4e-136 -2.56e+02 -2.56e+02 9.0e-01 9.0e-01 2.00e-01
68 8.0e-33 2.8e-68 1.4e-137 -2.56e+02 -2.56e+02 9.0e-01 1.2e+00 2.00e-01
69 1.6e-33 2.8e-69 3.4e-138 -2.56e+02 -2.56e+02 9.0e-01 1.7e+00 2.00e-01
70 3.5e-34 2.8e-70 5.0e-138 -2.56e+02 -2.56e+02 9.0e-01 9.0e-01 2.00e-01
71 8.1e-35 2.8e-71 1.8e-136 -2.56e+02 -2.56e+02 9.0e-01 1.2e+00 2.00e-01
72 1.7e-35 2.8e-72 8.3e-136 -2.56e+02 -2.56e+02 9.0e-01 1.7e+00 2.00e-01
73 3.6e-36 2.8e-73 2.4e-134 -2.56e+02 -2.56e+02 9.0e-01 9.0e-01 2.00e-01
74 8.3e-37 2.8e-74 1.8e-133 -2.56e+02 -2.56e+02 9.0e-01 1.2e+00 2.00e-01
75 1.7e-37 2.8e-75 1.8e-132 -2.56e+02 -2.56e+02 9.0e-01 1.7e+00 2.00e-01
76 3.6e-38 2.8e-76 9.6e-132 -2.56e+02 -2.56e+02 9.0e-01 9.0e-01 2.00e-01
77 8.4e-39 2.8e-77 1.6e-130 -2.56e+02 -2.56e+02 9.0e-01 1.2e+00 2.00e-01
78 1.7e-39 2.8e-78 2.5e-129 -2.56e+02 -2.56e+02 9.0e-01 1.7e+00 2.00e-01
79 3.7e-40 2.8e-79 1.8e-129 -2.56e+02 -2.56e+02 9.0e-01 9.0e-01 2.00e-01
80 8.5e-41 2.8e-80 1.8e-130 -2.56e+02 -2.56e+02 9.0e-01 1.2e+00 2.00e-01
81 1.8e-41 2.8e-81 4.7e-131 -2.56e+02 -2.56e+02 9.0e-01 1.7e+00 2.00e-01
82 3.7e-42 2.8e-82 2.4e-129 -2.56e+02 -2.56e+02 9.0e-01 9.0e-01 2.00e-01
83 8.7e-43 2.8e-83 6.9e-129 -2.56e+02 -2.56e+02 9.0e-01 1.2e+00 2.00e-01
84 1.8e-43 2.8e-84 1.2e-129 -2.56e+02 -2.56e+02 9.0e-01 1.7e+00 2.00e-01
85 3.8e-44 2.8e-85 8.7e-130 -2.56e+02 -2.56e+02 9.0e-01 9.0e-01 2.00e-01
86 8.8e-45 2.8e-86 5.6e-131 -2.56e+02 -2.56e+02 9.7e-01 1.0e+00 1.00e-01
87 1.0e-45 2.8e-86 1.0e-132 -2.56e+02 -2.56e+02 9.8e-01 1.0e+00 1.00e-01
88 1.1e-46 2.8e-86 3.0e-134 -2.56e+02 -2.56e+02 9.8e-01 1.0e+00 1.00e-01
89 1.1e-47 2.8e-86 8.2e-136 -2.56e+02 -2.56e+02 9.8e-01 1.0e+00 1.00e-01
90 1.1e-48 2.8e-86 2.3e-137 -2.56e+02 -2.56e+02 9.8e-01 1.0e+00 1.00e-01
91 1.1e-49 2.8e-86 6.3e-139 -2.56e+02 -2.56e+02 9.8e-01 1.0e+00 1.00e-01
92 1.1e-50 2.8e-86 1.7e-140 -2.56e+02 -2.56e+02 9.8e-01 1.0e+00 1.00e-01
93 1.1e-51 2.8e-86 5.2e-142 -2.56e+02 -2.56e+02 9.8e-01 1.0e+00 1.00e-01
94 1.1e-52 2.8e-86 0.0e+00 -2.56e+02 -2.56e+02 9.8e-01 1.0e+00 1.00e-01
95 1.1e-53 2.8e-86 5.2e-143 -2.56e+02 -2.56e+02 9.8e-01 1.0e+00 1.00e-01
96 1.1e-54 2.8e-86 0.0e+00 -2.56e+02 -2.56e+02 9.8e-01 1.0e+00 1.00e-01
97 1.1e-55 2.8e-86 0.0e+00 -2.56e+02 -2.56e+02 9.8e-01 1.0e+00 1.00e-01
98 1.1e-56 2.8e-86 0.0e+00 -2.56e+02 -2.56e+02 9.8e-01 1.0e+00 1.00e-01
99 1.1e-57 2.8e-86 0.0e+00 -2.56e+02 -2.56e+02 9.8e-01 1.0e+00 1.00e-01
100 1.1e-58 2.8e-86 7.1e-162 -2.56e+02 -2.56e+02 9.8e-01 1.0e+00 1.00e-01
101 1.1e-59 2.8e-86 5.2e-143 -2.56e+02 -2.56e+02 9.8e-01 1.0e+00 1.00e-01
102 1.1e-60 2.8e-86 5.2e-143 -2.56e+02 -2.56e+02 9.8e-01 1.0e+00 1.00e-01
103 1.1e-61 2.8e-86 5.2e-143 -2.56e+02 -2.56e+02 9.8e-01 1.0e+00 1.00e-01
104 1.1e-62 2.8e-86 3.8e-143 -2.56e+02 -2.56e+02 9.8e-01 1.0e+00 1.00e-01
105 1.1e-63 2.8e-86 1.0e-144 -2.56e+02 -2.56e+02 9.8e-01 1.0e+00 1.00e-01
106 1.1e-64 2.8e-86 2.9e-146 -2.56e+02 -2.56e+02 9.8e-01 1.0e+00 1.00e-01
107 1.1e-65 2.8e-86 8.0e-148 -2.56e+02 -2.56e+02 9.8e-01 1.0e+00 1.00e-01
108 1.1e-66 2.8e-86 2.2e-149 -2.56e+02 -2.56e+02 9.8e-01 1.0e+00 1.00e-01
109 1.1e-67 2.8e-86 6.1e-151 -2.56e+02 -2.56e+02 9.8e-01 1.0e+00 1.00e-01
110 1.1e-68 2.8e-86 1.7e-152 -2.56e+02 -2.56e+02 9.8e-01 1.0e+00 1.00e-01
111 1.1e-69 2.8e-86 4.7e-154 -2.56e+02 -2.56e+02 9.8e-01 1.0e+00 1.00e-01
112 1.1e-70 2.8e-86 1.3e-155 -2.56e+02 -2.56e+02 9.8e-01 1.0e+00 1.00e-01
113 1.1e-71 2.8e-86 3.6e-157 -2.56e+02 -2.56e+02 9.8e-01 1.0e+00 1.00e-01
114 1.1e-72 2.8e-86 9.9e-159 -2.56e+02 -2.56e+02 9.8e-01 1.0e+00 1.00e-01
115 1.1e-73 2.8e-86 2.7e-160 -2.56e+02 -2.56e+02 9.8e-01 1.0e+00 1.00e-01
116 1.1e-74 2.8e-86 1.1e-161 -2.56e+02 -2.56e+02 9.8e-01 1.0e+00 1.00e-01
117 1.1e-75 2.8e-86 2.8e-162 -2.56e+02 -2.56e+02 9.8e-01 1.0e+00 1.00e-01
118 1.1e-76 2.8e-86 1.4e-163 -2.56e+02 -2.56e+02 9.8e-01 1.0e+00 1.00e-01
119 1.1e-77 2.8e-86 2.5e-162 -2.56e+02 -2.56e+02 9.8e-01 1.0e+00 1.00e-01
120 1.1e-78 2.8e-86 7.3e-162 -2.56e+02 -2.56e+02 9.8e-01 1.0e+00 1.00e-01
121 1.1e-79 2.8e-86 2.8e-162 -2.56e+02 -2.56e+02 9.8e-01 1.0e+00 1.00e-01

phase.value = pdOPT     
   Iteration = 121
          mu = 1.0825567798014875e-79
relative gap = 1.8391496029906912e-81
         gap = 6.4953406788089252e-79
      digits = 8.0735382942262333e+01
objValPrimal = -2.5598529411764706e+02
objValDual   = -2.5598529411764706e+02
p.feas.error = 2.7562959104299632e-81
d.feas.error = 7.4583407312002067e-155
relative eps = 7.4583407312002067e-155
total time   = 0.000


Parameters are
maxIteration =    1000
epsilonStar  = 1.000e-80
lambdaStar   = 1.000e+05
omegaStar    = 2.000e+00
lowerBound   = -1.000e+05
upperBound   = 1.000e+05
betaStar     = 1.000e-01
betaBar      = 2.000e-01
gammaStar    = 9.000e-01
epsilonDash  = 1.000e-80
precision    =    512

                         Time(sec)  Ratio(% : MainLoop) 
 Predictor time  =       0.000000,  -nan
 Corrector time  =       0.000000,  -nan
 Make bMat time  =       0.000000,  -nan
 Make bDia time  =       0.000000,  -nan
 Make bF1  time  =       0.000000,  -nan
 Make bF2  time  =       0.000000,  -nan
 Make bF3  time  =       0.000000,  -nan
 Make bPRE time  =       0.000000,  -nan
 Make rMat time  =       0.000000,  -nan
 Make gVec Mul   =       0.000000,  -nan
 Make gVec time  =       0.000000,  -nan
 Cholesky bMat   =       0.000000,  -nan
 Ste Pre time    =       0.000000,  -nan
 Ste Cor time    =       0.000000,  -nan
 solve           =       0.000000,  -nan
 sumDz           =       0.000000,  -nan
 makedX          =       0.000000,  -nan
 symmetriseDx    =       0.000000,  -nan
 makedXdZ        =       0.000000,  -nan
 xMatTime        =       0.000000,  -nan
 zMatTime        =       0.000000,  -nan
 invzMatTime     =       0.000000,  -nan
 xMatzMatTime    =       0.000000,  -nan
 EigxMatTime     =       0.000000,  -nan
 EigzMatTime     =       0.000000,  -nan
 EigxMatzMatTime =       0.000000,  -nan
 updateRes       =       0.000000,  -nan
 EigTime         =       0.000000,  -nan
 sub_total_bMat  =       0.000000,  -nan
 Main Loop       =       0.000000,  -nan
 File Check      =       0.000000,  -nan
 File Change     =       0.000000,  -nan
 File Read       =       0.000000,  -nan
 Total           =       0.000000,  -nan

xVec = 
{+1.00000000000000000000000000000000000000000000000000000000000000000000000000000000000940424105623436715080094075866139766802577853689651648538697142144814099e+00,+1.29992187499999999999999999999999999999999999999999999999999999999999999999999999931724842278861535150717495139693376874512338854984499971241663026796685936e+02,+1.19993566176470588235294117647058823529411764705882352941176470588235294117647058452746665565763555758626052092423800886632863928774779369981059459867579476e+02,+4.99954044117647058823529411764705882352941176470588235294117647058823529411764711505654144190686341185825440496037405388130757105452622844264451143645079611e+00}
xMat = 
{
{+1.3656468292170648759097085277268164987637985251636966101838918702794381788341473154238058580256304176828543374673498548618178499607153561631737422508790382e-79}
{+2.18503492674730380145553364436290639802207764025238306810152649203377751080622161805537071466962552464548119464564551420701525790022424600852588044290695652e-78}
{+2.94117647058823529411764705882352941176470588235294117647058823529411764705837024698939892744258197846542879818524577833308026884500972630330102147850670496e-02}
{+2.7468365440067739267337216839363664719092519456697996855902092385431606597853959437176816066536868794724502761705973056576729704983552057571440921132297404e-81}
{+2.76570015148619759075049840765460517696179221318518126837052278870632943697670305227366699171752441589721861423840867789562113319436321868553863782768589519e-81}
{+1.74802794139784304116442691549032511841766211221658036175581851049516591024080583886919675815907359489909676832727546089111263519067837471780768228238645632e-77}
}
yMat = 
{
{+9.41176470588235294117647058823529411764705882352941176470588235294117647058838837890770139453517894204586952052747582483446585475741469548916336949182009936e-01}
{+5.88235294117647058823529411764705882352941176470588235294117647058823529411821012931568329024433633855952007550335935571297785657899658110956641652163714348e-02}
{+2.99131198956747942303679859745040111159657722519486307591933714457158777119731994387986270234848796501383516705206883918630142424969003223648750990603034562e-78}
{+3.24216625971308387217789849850387464159988185797658823295224694071148736197352021309883423212829483678609526916197444280610621696057822328107110214782793233e+01}
{+3.14216625971308387217789849850387464159988185797658823295224694071148736197352021309883423212829483678609526916197444280610621696057822328107110214782793232e+01}
{+7.35294117647058823529411764705882352941176470588235294117647058823529411764701483364721224294966122355003749410130005033492360495476589210081512370924709862e-03}
}
    main loop time = 0.000000
        total time = 0.000000
  file   read time = 0.000000
